c cksystemsgroup.github.io/unicorn
c CNF contains a total of 950 clauses.
c CNF contains a total of 243 variables.
c CNF clauses cover 1 bad states.
c Variable name mapping (33 names):
c   1: quotient[bit=0]
c   3: quotient[bit=1]
c   5: quotient[bit=2]
c   8: quotient[bit=3]
c   11: quotient[bit=4]
c   14: quotient[bit=5]
c   17: quotient[bit=6]
c   20: quotient[bit=7]
c   22: ?
c   23: input[bit=0]
c   25: input[bit=1]
c   47: input[bit=2]
c   66: input[bit=3]
c   82: input[bit=4]
c   95: input[bit=5]
c   105: input[bit=6]
c   112: input[bit=0]
c   114: remainder[bit=0]
c   123: input[bit=1]
c   125: remainder[bit=1]
c   133: input[bit=4]
c   135: remainder[bit=4]
c   137: remainder[bit=3]
c   139: remainder[bit=2]
c   149: input[bit=3]
c   157: input[bit=5]
c   159: remainder[bit=5]
c   167: input[bit=7]
c   169: input[bit=7]
c   173: remainder[bit=7]
c   175: remainder[bit=6]
c   185: input[bit=2]
c   236: input[bit=6]
p cnf 243 950
-1 -2 0
1 2 0
-2 -3 4 0
2 -4 0
3 -4 0
-5 -6 0
5 6 0
-4 -6 7 0
4 -7 0
6 -7 0
-8 -9 0
8 9 0
-7 -9 10 0
7 -10 0
9 -10 0
-11 -12 0
11 12 0
-10 -12 13 0
10 -13 0
12 -13 0
-14 -15 0
14 15 0
-13 -15 16 0
13 -16 0
15 -16 0
-17 -18 0
17 18 0
-16 -18 19 0
16 -19 0
18 -19 0
-20 -21 0
20 21 0
-19 -21 22 0
19 -22 0
21 -22 0
-20 -23 24 0
20 -24 0
23 -24 0
-17 -25 26 0
17 -26 0
25 -26 0
-17 -23 27 0
17 -27 0
23 -27 0
-14 -25 28 0
14 -28 0
25 -28 0
-14 -23 29 0
14 -29 0
23 -29 0
-11 -25 30 0
11 -30 0
25 -30 0
-11 -23 31 0
11 -31 0
23 -31 0
-8 -25 32 0
8 -32 0
25 -32 0
-8 -23 33 0
8 -33 0
23 -33 0
-5 -25 34 0
5 -34 0
25 -34 0
-5 -23 35 0
5 -35 0
23 -35 0
-3 -25 36 0
3 -36 0
25 -36 0
-3 -23 37 0
3 -37 0
23 -37 0
-1 -25 38 0
1 -38 0
25 -38 0
-39 0
37 38 -40 0
37 39 -40 0
-38 -39 40 0
38 39 -40 0
-37 -39 40 0
-37 -38 40 0
35 36 -41 0
35 40 -41 0
-36 -40 41 0
36 40 -41 0
-35 -40 41 0
-35 -36 41 0
33 34 -42 0
33 41 -42 0
-34 -41 42 0
34 41 -42 0
-33 -41 42 0
-33 -34 42 0
31 32 -43 0
31 42 -43 0
-32 -42 43 0
32 42 -43 0
-31 -42 43 0
-31 -32 43 0
29 30 -44 0
29 43 -44 0
-30 -43 44 0
30 43 -44 0
-29 -43 44 0
-29 -30 44 0
27 28 -45 0
27 44 -45 0
-28 -44 45 0
28 44 -45 0
-27 -44 45 0
-27 -28 45 0
24 26 45 -46 0
24 26 -45 46 0
24 -26 45 46 0
24 -26 -45 -46 0
-24 26 45 46 0
-24 26 -45 -46 0
-24 -26 45 -46 0
-24 -26 -45 46 0
-14 -47 48 0
14 -48 0
47 -48 0
27 28 44 -49 0
27 28 -44 49 0
27 -28 44 49 0
27 -28 -44 -49 0
-27 28 44 49 0
-27 28 -44 -49 0
-27 -28 44 -49 0
-27 -28 -44 49 0
-11 -47 50 0
11 -50 0
47 -50 0
29 30 43 -51 0
29 30 -43 51 0
29 -30 43 51 0
29 -30 -43 -51 0
-29 30 43 51 0
-29 30 -43 -51 0
-29 -30 43 -51 0
-29 -30 -43 51 0
-8 -47 52 0
8 -52 0
47 -52 0
31 32 42 -53 0
31 32 -42 53 0
31 -32 42 53 0
31 -32 -42 -53 0
-31 32 42 53 0
-31 32 -42 -53 0
-31 -32 42 -53 0
-31 -32 -42 53 0
-5 -47 54 0
5 -54 0
47 -54 0
33 34 41 -55 0
33 34 -41 55 0
33 -34 41 55 0
33 -34 -41 -55 0
-33 34 41 55 0
-33 34 -41 -55 0
-33 -34 41 -55 0
-33 -34 -41 55 0
-3 -47 56 0
3 -56 0
47 -56 0
35 36 40 -57 0
35 36 -40 57 0
35 -36 40 57 0
35 -36 -40 -57 0
-35 36 40 57 0
-35 36 -40 -57 0
-35 -36 40 -57 0
-35 -36 -40 57 0
-1 -47 58 0
1 -58 0
47 -58 0
-59 0
57 58 -60 0
57 59 -60 0
-58 -59 60 0
58 59 -60 0
-57 -59 60 0
-57 -58 60 0
55 56 -61 0
55 60 -61 0
-56 -60 61 0
56 60 -61 0
-55 -60 61 0
-55 -56 61 0
53 54 -62 0
53 61 -62 0
-54 -61 62 0
54 61 -62 0
-53 -61 62 0
-53 -54 62 0
51 52 -63 0
51 62 -63 0
-52 -62 63 0
52 62 -63 0
-51 -62 63 0
-51 -52 63 0
49 50 -64 0
49 63 -64 0
-50 -63 64 0
50 63 -64 0
-49 -63 64 0
-49 -50 64 0
46 48 64 -65 0
46 48 -64 65 0
46 -48 64 65 0
46 -48 -64 -65 0
-46 48 64 65 0
-46 48 -64 -65 0
-46 -48 64 -65 0
-46 -48 -64 65 0
-11 -66 67 0
11 -67 0
66 -67 0
49 50 63 -68 0
49 50 -63 68 0
49 -50 63 68 0
49 -50 -63 -68 0
-49 50 63 68 0
-49 50 -63 -68 0
-49 -50 63 -68 0
-49 -50 -63 68 0
-8 -66 69 0
8 -69 0
66 -69 0
51 52 62 -70 0
51 52 -62 70 0
51 -52 62 70 0
51 -52 -62 -70 0
-51 52 62 70 0
-51 52 -62 -70 0
-51 -52 62 -70 0
-51 -52 -62 70 0
-5 -66 71 0
5 -71 0
66 -71 0
53 54 61 -72 0
53 54 -61 72 0
53 -54 61 72 0
53 -54 -61 -72 0
-53 54 61 72 0
-53 54 -61 -72 0
-53 -54 61 -72 0
-53 -54 -61 72 0
-3 -66 73 0
3 -73 0
66 -73 0
55 56 60 -74 0
55 56 -60 74 0
55 -56 60 74 0
55 -56 -60 -74 0
-55 56 60 74 0
-55 56 -60 -74 0
-55 -56 60 -74 0
-55 -56 -60 74 0
-1 -66 75 0
1 -75 0
66 -75 0
-76 0
74 75 -77 0
74 76 -77 0
-75 -76 77 0
75 76 -77 0
-74 -76 77 0
-74 -75 77 0
72 73 -78 0
72 77 -78 0
-73 -77 78 0
73 77 -78 0
-72 -77 78 0
-72 -73 78 0
70 71 -79 0
70 78 -79 0
-71 -78 79 0
71 78 -79 0
-70 -78 79 0
-70 -71 79 0
68 69 -80 0
68 79 -80 0
-69 -79 80 0
69 79 -80 0
-68 -79 80 0
-68 -69 80 0
65 67 80 -81 0
65 67 -80 81 0
65 -67 80 81 0
65 -67 -80 -81 0
-65 67 80 81 0
-65 67 -80 -81 0
-65 -67 80 -81 0
-65 -67 -80 81 0
-8 -82 83 0
8 -83 0
82 -83 0
68 69 79 -84 0
68 69 -79 84 0
68 -69 79 84 0
68 -69 -79 -84 0
-68 69 79 84 0
-68 69 -79 -84 0
-68 -69 79 -84 0
-68 -69 -79 84 0
-5 -82 85 0
5 -85 0
82 -85 0
70 71 78 -86 0
70 71 -78 86 0
70 -71 78 86 0
70 -71 -78 -86 0
-70 71 78 86 0
-70 71 -78 -86 0
-70 -71 78 -86 0
-70 -71 -78 86 0
-3 -82 87 0
3 -87 0
82 -87 0
72 73 77 -88 0
72 73 -77 88 0
72 -73 77 88 0
72 -73 -77 -88 0
-72 73 77 88 0
-72 73 -77 -88 0
-72 -73 77 -88 0
-72 -73 -77 88 0
-1 -82 89 0
1 -89 0
82 -89 0
-90 0
88 89 -91 0
88 90 -91 0
-89 -90 91 0
89 90 -91 0
-88 -90 91 0
-88 -89 91 0
86 87 -92 0
86 91 -92 0
-87 -91 92 0
87 91 -92 0
-86 -91 92 0
-86 -87 92 0
84 85 -93 0
84 92 -93 0
-85 -92 93 0
85 92 -93 0
-84 -92 93 0
-84 -85 93 0
81 83 93 -94 0
81 83 -93 94 0
81 -83 93 94 0
81 -83 -93 -94 0
-81 83 93 94 0
-81 83 -93 -94 0
-81 -83 93 -94 0
-81 -83 -93 94 0
-5 -95 96 0
5 -96 0
95 -96 0
84 85 92 -97 0
84 85 -92 97 0
84 -85 92 97 0
84 -85 -92 -97 0
-84 85 92 97 0
-84 85 -92 -97 0
-84 -85 92 -97 0
-84 -85 -92 97 0
-3 -95 98 0
3 -98 0
95 -98 0
86 87 91 -99 0
86 87 -91 99 0
86 -87 91 99 0
86 -87 -91 -99 0
-86 87 91 99 0
-86 87 -91 -99 0
-86 -87 91 -99 0
-86 -87 -91 99 0
-1 -95 100 0
1 -100 0
95 -100 0
-101 0
99 100 -102 0
99 101 -102 0
-100 -101 102 0
100 101 -102 0
-99 -101 102 0
-99 -100 102 0
97 98 -103 0
97 102 -103 0
-98 -102 103 0
98 102 -103 0
-97 -102 103 0
-97 -98 103 0
94 96 103 -104 0
94 96 -103 104 0
94 -96 103 104 0
94 -96 -103 -104 0
-94 96 103 104 0
-94 96 -103 -104 0
-94 -96 103 -104 0
-94 -96 -103 104 0
-3 -105 106 0
3 -106 0
105 -106 0
97 98 102 -107 0
97 98 -102 107 0
97 -98 102 107 0
97 -98 -102 -107 0
-97 98 102 107 0
-97 98 -102 -107 0
-97 -98 102 -107 0
-97 -98 -102 107 0
-1 -105 108 0
1 -108 0
105 -108 0
-109 0
107 108 -110 0
107 109 -110 0
-108 -109 110 0
108 109 -110 0
-107 -109 110 0
-107 -108 110 0
104 106 -111 0
104 110 -111 0
-106 -110 111 0
106 110 -111 0
-104 -110 111 0
-104 -106 111 0
-111 0
-1 -23 113 0
1 -113 0
23 -113 0
113 114 -115 0
113 -114 115 0
-113 114 115 0
-113 -114 -115 0
-112 -115 -116 0
112 116 0
115 116 0
-112 -117 0
112 117 0
-115 -118 0
115 118 0
-117 -118 -119 0
117 119 0
118 119 0
-116 -119 -120 0
116 120 0
119 120 0
120 0
24 26 -121 0
24 45 -121 0
-26 -45 121 0
26 45 -121 0
-24 -45 121 0
-24 -26 121 0
-121 0
65 67 -122 0
65 80 -122 0
-67 -80 122 0
67 80 -122 0
-65 -80 122 0
-65 -67 122 0
-122 0
37 38 39 -124 0
37 38 -39 124 0
37 -38 39 124 0
37 -38 -39 -124 0
-37 38 39 124 0
-37 38 -39 -124 0
-37 -38 39 -124 0
-37 -38 -39 124 0
-113 -114 126 0
113 -126 0
114 -126 0
124 125 126 -127 0
124 125 -126 127 0
124 -125 126 127 0
124 -125 -126 -127 0
-124 125 126 127 0
-124 125 -126 -127 0
-124 -125 126 -127 0
-124 -125 -126 127 0
-123 -127 -128 0
123 128 0
127 128 0
-123 -129 0
123 129 0
-127 -130 0
127 130 0
-129 -130 -131 0
129 131 0
130 131 0
-128 -131 -132 0
128 132 0
131 132 0
132 0
88 89 90 -134 0
88 89 -90 134 0
88 -89 90 134 0
88 -89 -90 -134 0
-88 89 90 134 0
-88 89 -90 -134 0
-88 -89 90 -134 0
-88 -89 -90 134 0
74 75 76 -136 0
74 75 -76 136 0
74 -75 76 136 0
74 -75 -76 -136 0
-74 75 76 136 0
-74 75 -76 -136 0
-74 -75 76 -136 0
-74 -75 -76 136 0
57 58 59 -138 0
57 58 -59 138 0
57 -58 59 138 0
57 -58 -59 -138 0
-57 58 59 138 0
-57 58 -59 -138 0
-57 -58 59 -138 0
-57 -58 -59 138 0
124 125 -140 0
124 126 -140 0
-125 -126 140 0
125 126 -140 0
-124 -126 140 0
-124 -125 140 0
138 139 -141 0
138 140 -141 0
-139 -140 141 0
139 140 -141 0
-138 -140 141 0
-138 -139 141 0
136 137 -142 0
136 141 -142 0
-137 -141 142 0
137 141 -142 0
-136 -141 142 0
-136 -137 142 0
134 135 142 -143 0
134 135 -142 143 0
134 -135 142 143 0
134 -135 -142 -143 0
-134 135 142 143 0
-134 135 -142 -143 0
-134 -135 142 -143 0
-134 -135 -142 143 0
-133 -143 -144 0
133 144 0
143 144 0
-133 -145 0
133 145 0
-143 -146 0
143 146 0
-145 -146 -147 0
145 147 0
146 147 0
-144 -147 -148 0
144 148 0
147 148 0
148 0
136 137 141 -150 0
136 137 -141 150 0
136 -137 141 150 0
136 -137 -141 -150 0
-136 137 141 150 0
-136 137 -141 -150 0
-136 -137 141 -150 0
-136 -137 -141 150 0
-149 -150 -151 0
149 151 0
150 151 0
-149 -152 0
149 152 0
-150 -153 0
150 153 0
-152 -153 -154 0
152 154 0
153 154 0
-151 -154 -155 0
151 155 0
154 155 0
155 0
-156 0
-156 0
99 100 101 -158 0
99 100 -101 158 0
99 -100 101 158 0
99 -100 -101 -158 0
-99 100 101 158 0
-99 100 -101 -158 0
-99 -100 101 -158 0
-99 -100 -101 158 0
134 135 -160 0
134 142 -160 0
-135 -142 160 0
135 142 -160 0
-134 -142 160 0
-134 -135 160 0
158 159 160 -161 0
158 159 -160 161 0
158 -159 160 161 0
158 -159 -160 -161 0
-158 159 160 161 0
-158 159 -160 -161 0
-158 -159 160 -161 0
-158 -159 -160 161 0
-157 -161 -162 0
157 162 0
161 162 0
-157 -163 0
157 163 0
-161 -164 0
161 164 0
-163 -164 -165 0
163 165 0
164 165 0
-162 -165 -166 0
162 166 0
165 166 0
166 0
104 106 110 -168 0
104 106 -110 168 0
104 -106 110 168 0
104 -106 -110 -168 0
-104 106 110 168 0
-104 106 -110 -168 0
-104 -106 110 -168 0
-104 -106 -110 168 0
-1 -169 170 0
1 -170 0
169 -170 0
-171 0
168 170 171 -172 0
168 170 -171 172 0
168 -170 171 172 0
168 -170 -171 -172 0
-168 170 171 172 0
-168 170 -171 -172 0
-168 -170 171 -172 0
-168 -170 -171 172 0
107 108 109 -174 0
107 108 -109 174 0
107 -108 109 174 0
107 -108 -109 -174 0
-107 108 109 174 0
-107 108 -109 -174 0
-107 -108 109 -174 0
-107 -108 -109 174 0
158 159 -176 0
158 160 -176 0
-159 -160 176 0
159 160 -176 0
-158 -160 176 0
-158 -159 176 0
174 175 -177 0
174 176 -177 0
-175 -176 177 0
175 176 -177 0
-174 -176 177 0
-174 -175 177 0
172 173 177 -178 0
172 173 -177 178 0
172 -173 177 178 0
172 -173 -177 -178 0
-172 173 177 178 0
-172 173 -177 -178 0
-172 -173 177 -178 0
-172 -173 -177 178 0
-167 -178 -179 0
167 179 0
178 179 0
-167 -180 0
167 180 0
-178 -181 0
178 181 0
-180 -181 -182 0
180 182 0
181 182 0
-179 -182 -183 0
179 183 0
182 183 0
183 0
81 83 -184 0
81 93 -184 0
-83 -93 184 0
83 93 -184 0
-81 -93 184 0
-81 -83 184 0
-184 0
138 139 140 -186 0
138 139 -140 186 0
138 -139 140 186 0
138 -139 -140 -186 0
-138 139 140 186 0
-138 139 -140 -186 0
-138 -139 140 -186 0
-138 -139 -140 186 0
-185 -186 -187 0
185 187 0
186 187 0
-185 -188 0
185 188 0
-186 -189 0
186 189 0
-188 -189 -190 0
188 190 0
189 190 0
-187 -190 -191 0
187 191 0
190 191 0
191 0
172 173 -192 0
172 177 -192 0
-173 -177 192 0
173 177 -192 0
-172 -177 192 0
-172 -173 192 0
-192 0
-193 0
-169 -194 0
169 194 0
-195 0
-105 -196 0
105 196 0
-197 0
-95 -198 0
95 198 0
-199 0
-82 -200 0
82 200 0
-201 0
-66 -202 0
66 202 0
-203 0
-47 -204 0
47 204 0
-205 0
-25 -206 0
25 206 0
-207 0
-23 -208 0
23 208 0
206 207 -209 0
206 208 -209 0
-207 -208 209 0
207 208 -209 0
-206 -208 209 0
-206 -207 209 0
204 205 -210 0
204 209 -210 0
-205 -209 210 0
205 209 -210 0
-204 -209 210 0
-204 -205 210 0
202 203 -211 0
202 210 -211 0
-203 -210 211 0
203 210 -211 0
-202 -210 211 0
-202 -203 211 0
200 201 -212 0
200 211 -212 0
-201 -211 212 0
201 211 -212 0
-200 -211 212 0
-200 -201 212 0
198 199 -213 0
198 212 -213 0
-199 -212 213 0
199 212 -213 0
-198 -212 213 0
-198 -199 213 0
196 197 -214 0
196 213 -214 0
-197 -213 214 0
197 213 -214 0
-196 -213 214 0
-196 -197 214 0
194 195 -215 0
194 214 -215 0
-195 -214 215 0
195 214 -215 0
-194 -214 215 0
-194 -195 215 0
-215 -216 0
215 216 0
194 195 214 -217 0
194 195 -214 217 0
194 -195 214 217 0
194 -195 -214 -217 0
-194 195 214 217 0
-194 195 -214 -217 0
-194 -195 214 -217 0
-194 -195 -214 217 0
196 197 213 -218 0
196 197 -213 218 0
196 -197 213 218 0
196 -197 -213 -218 0
-196 197 213 218 0
-196 197 -213 -218 0
-196 -197 213 -218 0
-196 -197 -213 218 0
198 199 212 -219 0
198 199 -212 219 0
198 -199 212 219 0
198 -199 -212 -219 0
-198 199 212 219 0
-198 199 -212 -219 0
-198 -199 212 -219 0
-198 -199 -212 219 0
200 201 211 -220 0
200 201 -211 220 0
200 -201 211 220 0
200 -201 -211 -220 0
-200 201 211 220 0
-200 201 -211 -220 0
-200 -201 211 -220 0
-200 -201 -211 220 0
202 203 210 -221 0
202 203 -210 221 0
202 -203 210 221 0
202 -203 -210 -221 0
-202 203 210 221 0
-202 203 -210 -221 0
-202 -203 210 -221 0
-202 -203 -210 221 0
204 205 209 -222 0
204 205 -209 222 0
204 -205 209 222 0
204 -205 -209 -222 0
-204 205 209 222 0
-204 205 -209 -222 0
-204 -205 209 -222 0
-204 -205 -209 222 0
206 207 208 -223 0
206 207 -208 223 0
206 -207 208 223 0
206 -207 -208 -223 0
-206 207 208 223 0
-206 207 -208 -223 0
-206 -207 208 -223 0
-206 -207 -208 223 0
-208 -224 0
208 224 0
-114 -224 225 0
114 -225 0
224 -225 0
125 223 -226 0
125 225 -226 0
-223 -225 226 0
223 225 -226 0
-125 -225 226 0
-125 -223 226 0
139 222 -227 0
139 226 -227 0
-222 -226 227 0
222 226 -227 0
-139 -226 227 0
-139 -222 227 0
137 221 -228 0
137 227 -228 0
-221 -227 228 0
221 227 -228 0
-137 -227 228 0
-137 -221 228 0
135 220 -229 0
135 228 -229 0
-220 -228 229 0
220 228 -229 0
-135 -228 229 0
-135 -220 229 0
159 219 -230 0
159 229 -230 0
-219 -229 230 0
219 229 -230 0
-159 -229 230 0
-159 -219 230 0
175 218 -231 0
175 230 -231 0
-218 -230 231 0
218 230 -231 0
-175 -230 231 0
-175 -218 231 0
173 217 -232 0
173 231 -232 0
-217 -231 232 0
217 231 -232 0
-173 -231 232 0
-173 -217 232 0
193 216 232 -233 0
193 216 -232 233 0
193 -216 232 233 0
193 -216 -232 -233 0
-193 216 232 233 0
-193 216 -232 -233 0
-193 -216 232 -233 0
-193 -216 -232 233 0
233 0
46 48 -234 0
46 64 -234 0
-48 -64 234 0
48 64 -234 0
-46 -64 234 0
-46 -48 234 0
-234 0
168 170 -235 0
168 171 -235 0
-170 -171 235 0
170 171 -235 0
-168 -171 235 0
-168 -170 235 0
-235 0
174 175 176 -237 0
174 175 -176 237 0
174 -175 176 237 0
174 -175 -176 -237 0
-174 175 176 237 0
-174 175 -176 -237 0
-174 -175 176 -237 0
-174 -175 -176 237 0
-236 -237 -238 0
236 238 0
237 238 0
-236 -239 0
236 239 0
-237 -240 0
237 240 0
-239 -240 -241 0
239 241 0
240 241 0
-238 -241 -242 0
238 242 0
241 242 0
242 0
94 96 -243 0
94 103 -243 0
-96 -103 243 0
96 103 -243 0
-94 -103 243 0
-94 -96 243 0
-243 0
22 0
